(set-logic QF_UF)
(declare-fun A0 () Bool)
(declare-fun A1 () Bool)
(declare-fun A2 () Bool)
(declare-fun A3 () Bool)
(declare-fun A4 () Bool)
(declare-fun A5 () Bool)
(declare-fun A6 () Bool)
(declare-fun A7 () Bool)
(declare-fun A8 () Bool)
(declare-fun A9 () Bool)
(declare-fun A10 () Bool)
(declare-fun A11 () Bool)
(declare-fun A12 () Bool)
(declare-fun A13 () Bool)
(declare-fun A14 () Bool)
(declare-fun A15 () Bool)
(declare-fun A16 () Bool)
(declare-fun A17 () Bool)
(declare-fun A18 () Bool)
(declare-fun A19 () Bool)
(declare-fun A20 () Bool)
(declare-fun A21 () Bool)
(declare-fun A22 () Bool)
(declare-fun A23 () Bool)
(declare-fun A24 () Bool)
(assert (let ((.def_0 (and A4 A24))) (let ((.def_1 (not A0))) (let ((.def_2 (or .def_1 A10))) (let ((.def_3 (not .def_2))) (let ((.def_4 (and .def_3 .def_0))) (let ((.def_5 (not .def_4))) (let ((.def_6 (not A17))) (let ((.def_7 (and A5 .def_6))) (let ((.def_8 (not A15))) (let ((.def_9 (or .def_8 A8))) (let ((.def_10 (not .def_9))) (let ((.def_11 (and .def_10 .def_7))) (let ((.def_12 (not .def_11))) (let ((.def_13 (and .def_12 .def_5))) (let ((.def_14 (not A5))) (let ((.def_15 (not A11))) (let ((.def_16 (or .def_15 .def_14))) (let ((.def_17 (and .def_15 A24))) (let ((.def_18 (not .def_17))) (let ((.def_19 (or .def_18 .def_16))) (let ((.def_20 (not .def_19))) (let ((.def_21 (not A23))) (let ((.def_22 (and A14 .def_21))) (let ((.def_23 (not .def_22))) (let ((.def_24 (or A5 A19))) (let ((.def_25 (not .def_24))) (let ((.def_26 (= .def_25 .def_23))) (let ((.def_27 (not .def_26))) (let ((.def_28 (and .def_27 .def_20))) (let ((.def_29 (and .def_28 .def_13))) (let ((.def_30 (and A16 A1))) (let ((.def_31 (not .def_30))) (let ((.def_32 (not A9))) (let ((.def_33 (and .def_32 .def_14))) (let ((.def_34 (or .def_33 .def_31))) (let ((.def_35 (not A16))) (let ((.def_36 (and .def_35 A21))) (let ((.def_37 (and .def_32 A22))) (let ((.def_38 (and .def_37 .def_36))) (let ((.def_39 (not .def_38))) (let ((.def_40 (= .def_39 .def_34))) (let ((.def_41 (and A7 .def_15))) (let ((.def_42 (not .def_41))) (let ((.def_43 (and A10 A3))) (let ((.def_44 (and .def_43 .def_42))) (let ((.def_45 (not A14))) (let ((.def_46 (and .def_45 A0))) (let ((.def_47 (and .def_1 A1))) (let ((.def_48 (= .def_47 .def_46))) (let ((.def_49 (= .def_48 .def_44))) (let ((.def_50 (or .def_49 .def_40))) (let ((.def_51 (and .def_50 .def_29))) (let ((.def_52 (and A2 A0))) (let ((.def_53 (= .def_6 A15))) (let ((.def_54 (or .def_53 .def_52))) (let ((.def_55 (not .def_54))) (let ((.def_56 (not A20))) (let ((.def_57 (or .def_56 .def_35))) (let ((.def_58 (not .def_57))) (let ((.def_59 (= A20 A3))) (let ((.def_60 (not .def_59))) (let ((.def_61 (or .def_60 .def_58))) (let ((.def_62 (not .def_61))) (let ((.def_63 (and .def_62 .def_55))) (let ((.def_64 (not .def_63))) (let ((.def_65 (not A18))) (let ((.def_66 (or A10 .def_65))) (let ((.def_67 (not .def_66))) (let ((.def_68 (not A1))) (let ((.def_69 (and .def_68 .def_68))) (let ((.def_70 (or .def_69 .def_67))) (let ((.def_71 (and A4 A16))) (let ((.def_72 (and A21 .def_56))) (let ((.def_73 (not .def_72))) (let ((.def_74 (or .def_73 .def_71))) (let ((.def_75 (not .def_74))) (let ((.def_76 (and .def_75 .def_70))) (let ((.def_77 (not .def_76))) (let ((.def_78 (= .def_77 .def_64))) (let ((.def_79 (not .def_78))) (let ((.def_80 (or .def_21 .def_6))) (let ((.def_81 (not .def_80))) (let ((.def_82 (not A22))) (let ((.def_83 (and .def_82 A14))) (let ((.def_84 (not .def_83))) (let ((.def_85 (and .def_84 .def_81))) (let ((.def_86 (not A8))) (let ((.def_87 (not A6))) (let ((.def_88 (or .def_87 .def_86))) (let ((.def_89 (not .def_88))) (let ((.def_90 (not A24))) (let ((.def_91 (and A4 .def_90))) (let ((.def_92 (or .def_91 .def_89))) (let ((.def_93 (and .def_92 .def_85))) (let ((.def_94 (not A7))) (let ((.def_95 (and .def_94 A18))) (let ((.def_96 (and A11 A21))) (let ((.def_97 (and .def_96 .def_95))) (let ((.def_98 (not .def_97))) (let ((.def_99 (and A19 .def_90))) (let ((.def_100 (not .def_99))) (let ((.def_101 (and A24 .def_86))) (let ((.def_102 (or .def_101 .def_100))) (let ((.def_103 (not .def_102))) (let ((.def_104 (and .def_103 .def_98))) (let ((.def_105 (not .def_104))) (let ((.def_106 (or .def_105 .def_93))) (let ((.def_107 (not .def_106))) (let ((.def_108 (or .def_107 .def_79))) (let ((.def_109 (= .def_108 .def_51))) (let ((.def_110 (and .def_6 A15))) (let ((.def_111 (or .def_90 .def_6))) (let ((.def_112 (and .def_111 .def_110))) (let ((.def_113 (not .def_112))) (let ((.def_114 (and A3 .def_6))) (let ((.def_115 (or .def_21 .def_15))) (let ((.def_116 (not .def_115))) (let ((.def_117 (or .def_116 .def_114))) (let ((.def_118 (and .def_117 .def_113))) (let ((.def_119 (not A21))) (let ((.def_120 (not A19))) (let ((.def_121 (and .def_120 .def_119))) (let ((.def_122 (and A9 A0))) (let ((.def_123 (not .def_122))) (let ((.def_124 (and .def_123 .def_121))) (let ((.def_125 (or A13 A3))) (let ((.def_126 (not .def_125))) (let ((.def_127 (= A17 .def_35))) (let ((.def_128 (not .def_127))) (let ((.def_129 (or .def_128 .def_126))) (let ((.def_130 (not .def_129))) (let ((.def_131 (or .def_130 .def_124))) (let ((.def_132 (not .def_131))) (let ((.def_133 (and .def_132 .def_118))) (let ((.def_134 (or .def_45 A11))) (let ((.def_135 (not .def_134))) (let ((.def_136 (or .def_68 A14))) (let ((.def_137 (and .def_136 .def_135))) (let ((.def_138 (not .def_137))) (let ((.def_139 (or A10 A6))) (let ((.def_140 (not .def_139))) (let ((.def_141 (and .def_32 A18))) (let ((.def_142 (not .def_141))) (let ((.def_143 (or .def_142 .def_140))) (let ((.def_144 (not .def_143))) (let ((.def_145 (or .def_144 .def_138))) (let ((.def_146 (and A23 .def_65))) (let ((.def_147 (not .def_146))) (let ((.def_148 (or A6 A23))) (let ((.def_149 (or .def_148 .def_147))) (let ((.def_150 (or .def_120 .def_90))) (let ((.def_151 (not .def_150))) (let ((.def_152 (not A4))) (let ((.def_153 (or A21 .def_152))) (let ((.def_154 (or .def_153 .def_151))) (let ((.def_155 (not .def_154))) (let ((.def_156 (or .def_155 .def_149))) (let ((.def_157 (or .def_156 .def_145))) (let ((.def_158 (not .def_157))) (let ((.def_159 (= .def_158 .def_133))) (let ((.def_160 (not .def_159))) (let ((.def_161 (and .def_21 A15))) (let ((.def_162 (not .def_161))) (let ((.def_163 (not A12))) (let ((.def_164 (or .def_163 A8))) (let ((.def_165 (not .def_164))) (let ((.def_166 (and .def_165 .def_162))) (let ((.def_167 (not .def_166))) (let ((.def_168 (and A17 .def_119))) (let ((.def_169 (not .def_168))) (let ((.def_170 (and A16 .def_65))) (let ((.def_171 (and .def_170 .def_169))) (let ((.def_172 (= .def_171 .def_167))) (let ((.def_173 (not .def_172))) (let ((.def_174 (not A2))) (let ((.def_175 (and .def_87 .def_174))) (let ((.def_176 (and .def_8 A2))) (let ((.def_177 (not .def_176))) (let ((.def_178 (and .def_177 .def_175))) (let ((.def_179 (or A11 A1))) (let ((.def_180 (not .def_179))) (let ((.def_181 (and .def_152 A24))) (let ((.def_182 (not .def_181))) (let ((.def_183 (or .def_182 .def_180))) (let ((.def_184 (not .def_183))) (let ((.def_185 (and .def_184 .def_178))) (let ((.def_186 (not .def_185))) (let ((.def_187 (and .def_186 .def_173))) (let ((.def_188 (or .def_86 .def_6))) (let ((.def_189 (or A21 A15))) (let ((.def_190 (not .def_189))) (let ((.def_191 (or .def_190 .def_188))) (let ((.def_192 (not .def_191))) (let ((.def_193 (and .def_6 A7))) (let ((.def_194 (not .def_193))) (let ((.def_195 (and .def_163 A20))) (let ((.def_196 (or .def_195 .def_194))) (let ((.def_197 (not .def_196))) (let ((.def_198 (and .def_197 .def_192))) (let ((.def_199 (and A11 .def_1))) (let ((.def_200 (not .def_199))) (let ((.def_201 (or A8 A19))) (let ((.def_202 (and .def_201 .def_200))) (let ((.def_203 (and A17 .def_86))) (let ((.def_204 (and .def_6 .def_120))) (let ((.def_205 (and .def_204 .def_203))) (let ((.def_206 (not .def_205))) (let ((.def_207 (or .def_206 .def_202))) (let ((.def_208 (not .def_207))) (let ((.def_209 (and .def_208 .def_198))) (let ((.def_210 (and .def_209 .def_187))) (let ((.def_211 (or .def_210 .def_160))) (let ((.def_212 (not .def_211))) (let ((.def_213 (or .def_212 .def_109))) (let ((.def_214 (and A2 .def_90))) (let ((.def_215 (or A5 A6))) (let ((.def_216 (or .def_215 .def_214))) (let ((.def_217 (not .def_216))) (let ((.def_218 (not A3))) (let ((.def_219 (or A7 .def_218))) (let ((.def_220 (not .def_219))) (let ((.def_221 (or A2 .def_21))) (let ((.def_222 (and .def_221 .def_220))) (let ((.def_223 (= .def_222 .def_217))) (let ((.def_224 (not .def_223))) (let ((.def_225 (and .def_86 .def_6))) (let ((.def_226 (not .def_225))) (let ((.def_227 (and A18 A8))) (let ((.def_228 (or .def_227 .def_226))) (let ((.def_229 (not .def_228))) (let ((.def_230 (and .def_163 A15))) (let ((.def_231 (and .def_8 .def_82))) (let ((.def_232 (and .def_231 .def_230))) (let ((.def_233 (and .def_232 .def_229))) (let ((.def_234 (or .def_233 .def_224))) (let ((.def_235 (and A2 A22))) (let ((.def_236 (not .def_235))) (let ((.def_237 (or A19 A12))) (let ((.def_238 (not .def_237))) (let ((.def_239 (and .def_238 .def_236))) (let ((.def_240 (and .def_45 A15))) (let ((.def_241 (and A20 A12))) (let ((.def_242 (= .def_241 .def_240))) (let ((.def_243 (not .def_242))) (let ((.def_244 (= .def_243 .def_239))) (let ((.def_245 (not .def_244))) (let ((.def_246 (and .def_45 A18))) (let ((.def_247 (not A10))) (let ((.def_248 (or .def_247 .def_1))) (let ((.def_249 (not .def_248))) (let ((.def_250 (and .def_249 .def_246))) (let ((.def_251 (and .def_120 .def_174))) (let ((.def_252 (not .def_251))) (let ((.def_253 (= A2 A11))) (let ((.def_254 (or .def_253 .def_252))) (let ((.def_255 (or .def_254 .def_250))) (let ((.def_256 (= .def_255 .def_245))) (let ((.def_257 (not .def_256))) (let ((.def_258 (or .def_257 .def_234))) (let ((.def_259 (not .def_258))) (let ((.def_260 (or A2 .def_32))) (let ((.def_261 (not .def_260))) (let ((.def_262 (not A13))) (let ((.def_263 (and .def_262 A23))) (let ((.def_264 (not .def_263))) (let ((.def_265 (or .def_264 .def_261))) (let ((.def_266 (or .def_68 .def_8))) (let ((.def_267 (and .def_6 A3))) (let ((.def_268 (or .def_267 .def_266))) (let ((.def_269 (not .def_268))) (let ((.def_270 (and .def_269 .def_265))) (let ((.def_271 (or .def_65 A11))) (let ((.def_272 (= .def_1 A16))) (let ((.def_273 (not .def_272))) (let ((.def_274 (and .def_273 .def_271))) (let ((.def_275 (and A10 .def_90))) (let ((.def_276 (not .def_275))) (let ((.def_277 (and .def_119 .def_86))) (let ((.def_278 (not .def_277))) (let ((.def_279 (or .def_278 .def_276))) (let ((.def_280 (not .def_279))) (let ((.def_281 (or .def_280 .def_274))) (let ((.def_282 (or .def_281 .def_270))) (let ((.def_283 (not .def_282))) (let ((.def_284 (and A18 A5))) (let ((.def_285 (not .def_284))) (let ((.def_286 (= .def_82 A3))) (let ((.def_287 (not .def_286))) (let ((.def_288 (and .def_287 .def_285))) (let ((.def_289 (not .def_288))) (let ((.def_290 (or A24 A10))) (let ((.def_291 (and A4 A2))) (let ((.def_292 (not .def_291))) (let ((.def_293 (and .def_292 .def_290))) (let ((.def_294 (not .def_293))) (let ((.def_295 (or .def_294 .def_289))) (let ((.def_296 (and .def_90 .def_82))) (let ((.def_297 (not .def_296))) (let ((.def_298 (and .def_1 A3))) (let ((.def_299 (not .def_298))) (let ((.def_300 (or .def_299 .def_297))) (let ((.def_301 (and .def_8 .def_247))) (let ((.def_302 (not .def_301))) (let ((.def_303 (and A4 .def_1))) (let ((.def_304 (= .def_303 .def_302))) (let ((.def_305 (not .def_304))) (let ((.def_306 (and .def_305 .def_300))) (let ((.def_307 (not .def_306))) (let ((.def_308 (and .def_307 .def_295))) (let ((.def_309 (not .def_308))) (let ((.def_310 (or .def_309 .def_283))) (let ((.def_311 (not .def_310))) (let ((.def_312 (and .def_311 .def_259))) (let ((.def_313 (not .def_312))) (let ((.def_314 (or .def_56 A24))) (let ((.def_315 (not .def_314))) (let ((.def_316 (= A6 .def_45))) (let ((.def_317 (or .def_316 .def_315))) (let ((.def_318 (and .def_218 .def_87))) (let ((.def_319 (not .def_318))) (let ((.def_320 (and .def_1 A21))) (let ((.def_321 (or .def_320 .def_319))) (let ((.def_322 (or .def_321 .def_317))) (let ((.def_323 (not .def_322))) (let ((.def_324 (or .def_262 .def_119))) (let ((.def_325 (and A4 A15))) (let ((.def_326 (not .def_325))) (let ((.def_327 (or .def_326 .def_324))) (let ((.def_328 (and A19 A7))) (let ((.def_329 (and .def_35 .def_35))) (let ((.def_330 (= .def_329 .def_328))) (let ((.def_331 (and .def_330 .def_327))) (let ((.def_332 (and .def_331 .def_323))) (let ((.def_333 (not .def_332))) (let ((.def_334 (and A11 .def_152))) (let ((.def_335 (not .def_334))) (let ((.def_336 (and A6 .def_119))) (let ((.def_337 (and .def_336 .def_335))) (let ((.def_338 (and .def_174 A9))) (let ((.def_339 (and .def_163 A4))) (let ((.def_340 (or .def_339 .def_338))) (let ((.def_341 (not .def_340))) (let ((.def_342 (or .def_341 .def_337))) (let ((.def_343 (not .def_342))) (let ((.def_344 (= A13 .def_218))) (let ((.def_345 (not .def_344))) (let ((.def_346 (or A15 .def_68))) (let ((.def_347 (not .def_346))) (let ((.def_348 (and .def_347 .def_345))) (let ((.def_349 (not .def_348))) (let ((.def_350 (and A10 .def_32))) (let ((.def_351 (not .def_350))) (let ((.def_352 (or A3 .def_6))) (let ((.def_353 (not .def_352))) (let ((.def_354 (or .def_353 .def_351))) (let ((.def_355 (not .def_354))) (let ((.def_356 (and .def_355 .def_349))) (let ((.def_357 (or .def_356 .def_343))) (let ((.def_358 (and .def_357 .def_333))) (let ((.def_359 (and .def_262 .def_21))) (let ((.def_360 (or A6 .def_32))) (let ((.def_361 (not .def_360))) (let ((.def_362 (or .def_361 .def_359))) (let ((.def_363 (not .def_362))) (let ((.def_364 (or .def_45 .def_32))) (let ((.def_365 (= A9 .def_68))) (let ((.def_366 (= .def_365 .def_364))) (let ((.def_367 (or .def_366 .def_363))) (let ((.def_368 (and .def_218 .def_21))) (let ((.def_369 (not .def_368))) (let ((.def_370 (or A9 .def_56))) (let ((.def_371 (not .def_370))) (let ((.def_372 (and .def_371 .def_369))) (let ((.def_373 (not .def_372))) (let ((.def_374 (and A24 A11))) (let ((.def_375 (not .def_374))) (let ((.def_376 (= A14 A21))) (let ((.def_377 (or .def_376 .def_375))) (let ((.def_378 (not .def_377))) (let ((.def_379 (and .def_378 .def_373))) (let ((.def_380 (or .def_379 .def_367))) (let ((.def_381 (not .def_380))) (let ((.def_382 (and .def_14 .def_262))) (let ((.def_383 (not .def_382))) (let ((.def_384 (or .def_163 .def_94))) (let ((.def_385 (not .def_384))) (let ((.def_386 (and .def_385 .def_383))) (let ((.def_387 (not .def_386))) (let ((.def_388 (or A9 .def_21))) (let ((.def_389 (not .def_388))) (let ((.def_390 (and .def_58 .def_389))) (let ((.def_391 (or .def_390 .def_387))) (let ((.def_392 (not .def_391))) (let ((.def_393 (or A14 A20))) (let ((.def_394 (not .def_393))) (let ((.def_395 (and A16 A20))) (let ((.def_396 (not .def_395))) (let ((.def_397 (= .def_396 .def_394))) (let ((.def_398 (and A9 .def_163))) (let ((.def_399 (and A3 A18))) (let ((.def_400 (not .def_399))) (let ((.def_401 (= .def_400 .def_398))) (let ((.def_402 (not .def_401))) (let ((.def_403 (or .def_402 .def_397))) (let ((.def_404 (and .def_403 .def_392))) (let ((.def_405 (not .def_404))) (let ((.def_406 (and .def_405 .def_381))) (let ((.def_407 (or .def_406 .def_358))) (let ((.def_408 (or .def_407 .def_313))) (let ((.def_409 (not .def_408))) (let ((.def_410 (or .def_409 .def_213))) (let ((.def_411 (not .def_410))) .def_411)))))))))))))))))))))))))))))))))))))))))))))))))))))))))))))))))))))))))))))))))))))))))))))))))))))))))))))))))))))))))))))))))))))))))))))))))))))))))))))))))))))))))))))))))))))))))))))))))))))))))))))))))))))))))))))))))))))))))))))))))))))))))))))))))))))))))))))))))))))))))))))))))))))))))))))))))))))))))))))))))))))))))))))))))))))))))))))))))))))))))))))))))))))))))))))))))))))))))))))))))))))))))))))
(check-sat)
